
--- Job M-Fvf.gms Start 01/22/23 14:26:58 41.2.0 5110e5ff WEX-WEI x86 64bit/MS Windows
--- Applying:
    C:\GAMS\41\gmsprmNT.txt
--- GAMS Parameters defined
    Input "G:\Mi unidad\TFG\src\gams\M-Fvf.gms"
    PageSize 0
    ScrDir "G:\Mi unidad\TFG\src\gams\225a\"
    SysDir C:\GAMS\41\
    LogOption 3
    ErrMsg 1
    ErrorLog 99
    IDE 1
    LstTitleLeftAligned 1
Licensee: GAMS Demo license for Antonio Sevilla Sastre   G221121|0002CO-GEN
          UCM, Spain                                               DL079880
          C:\Users\Antonio\Documents\GAMS\gamslice.txt
          antsev01@ucm.es, Antonio Sevilla Sastre                          
          Demo license for demonstration and instructional purposes only
Processor information: 1 socket(s), 14 core(s), and 20 thread(s) available
GAMS 41.2.0   Copyright (C) 1987-2022 GAMS Development. All rights reserved
--- Starting compilation
--- M-Fvf.gms(159) 3 Mb
--- Starting execution: elapsed 0:00:00.013
--- Generating MIP model modelo1
--- M-Fvf.gms(150) 4 Mb
---   908 rows  430 columns  2,726 non-zeroes
---   399 discrete-columns
--- Range statistics (absolute non-zero finite values)
--- RHS       [min, max] : [ 1.000E+00, 9.900E+01] - Zero values observed as well
--- Bound     [min, max] : [ 1.000E+00, 1.000E+00] - Zero values observed as well
--- Matrix    [min, max] : [ 1.520E-01, 9.900E+01]
--- Executing CPLEX (Solvelink=2): elapsed 0:00:00.050

IBM ILOG CPLEX   41.2.0 5110e5ff Nov 14, 2022          WEI x86 64bit/MS Window

--- *** This solver runs with a demo license. No commercial use.
--- GMO setup time: 0.00s
--- Space for names approximately 0.04 Mb
--- Use option 'names no' to turn use of names off
--- GMO memory 0.65 Mb (peak 0.65 Mb)
--- Dictionary memory 0.00 Mb
--- Cplex 22.1.0.0 link memory 0.02 Mb (peak 0.10 Mb)
--- Starting Cplex

Version identifier: 22.1.0.0 | 2022-03-09 | 1a383f8ce
CPXPARAM_Advance                                 0
CPXPARAM_Threads                                 1
CPXPARAM_MIP_Display                             4
CPXPARAM_MIP_Pool_Capacity                       0
CPXPARAM_MIP_Tolerances_AbsMIPGap                0
Generic callback                                 0x50
Found incumbent of value 49.000000 after 0.00 sec. (0.05 ticks)
Tried aggregator 3 times.
MIP Presolve eliminated 816 rows and 330 columns.
MIP Presolve modified 7 coefficients.
Aggregator did 79 substitutions.
Reduced MIP has 12 rows, 21 columns, and 54 nonzeros.
Reduced MIP has 1 binaries, 12 generals, 0 SOSs, and 0 indicators.
Presolve time = 0.00 sec. (1.36 ticks)
Probing fixed 0 vars, tightened 3 bounds.
Probing time = 0.00 sec. (0.00 ticks)
Tried aggregator 2 times.
MIP Presolve eliminated 5 rows and 14 columns.
MIP Presolve modified 9 coefficients.
Aggregator did 7 substitutions.
All rows and columns eliminated.
Presolve time = 0.00 sec. (0.04 ticks)

Root node processing (before b&c):
  Real time             =    0.00 sec. (1.48 ticks)
Sequential b&c:
  Real time             =    0.00 sec. (0.00 ticks)
                          ------------
Total (root+branch&cut) =    0.00 sec. (1.48 ticks)

--- MIP status (101): integer optimal solution.
--- Cplex Time: 0.00sec (det. 1.48 ticks)

--- Fixing integer variables and solving final LP...

Version identifier: 22.1.0.0 | 2022-03-09 | 1a383f8ce
CPXPARAM_Advance                                 2
CPXPARAM_Threads                                 1
CPXPARAM_MIP_Display                             4
CPXPARAM_MIP_Pool_Capacity                       0
CPXPARAM_MIP_Tolerances_AbsMIPGap                0
Tried aggregator 1 time.
LP Presolve eliminated 907 rows and 430 columns.
All rows and columns eliminated.
Presolve time = 0.00 sec. (0.35 ticks)

--- Fixed MIP status (1): optimal.
--- Cplex Time: 0.00sec (det. 0.64 ticks)


Proven optimal solution
MIP Solution:           49.000000    (0 iterations, 0 nodes)
Final Solve:            49.000000    (0 iterations)

Best possible:          49.000000
Absolute gap:            0.000000
Relative gap:            0.000000

--- Reading solution for model modelo1
--- Executing after solve: elapsed 0:00:00.097
--- Generating MIP model modelo1
--- M-Fvf.gms(151) 4 Mb
---   908 rows  430 columns  2,726 non-zeroes
---   399 discrete-columns
--- Range statistics (absolute non-zero finite values)
--- RHS       [min, max] : [ 1.000E+00, 9.900E+01] - Zero values observed as well
--- Bound     [min, max] : [ 1.000E+00, 1.000E+00] - Zero values observed as well
--- Matrix    [min, max] : [ 1.520E-01, 9.900E+01]
--- Executing CPLEX (Solvelink=2): elapsed 0:00:00.151

IBM ILOG CPLEX   41.2.0 5110e5ff Nov 14, 2022          WEI x86 64bit/MS Window

--- *** This solver runs with a demo license. No commercial use.
--- GMO setup time: 0.00s
--- Space for names approximately 0.04 Mb
--- Use option 'names no' to turn use of names off
--- GMO memory 0.65 Mb (peak 0.65 Mb)
--- Dictionary memory 0.00 Mb
--- Cplex 22.1.0.0 link memory 0.02 Mb (peak 0.10 Mb)
--- Starting Cplex

Version identifier: 22.1.0.0 | 2022-03-09 | 1a383f8ce
CPXPARAM_Advance                                 0
CPXPARAM_Threads                                 1
CPXPARAM_MIP_Display                             4
CPXPARAM_MIP_Pool_Capacity                       0
CPXPARAM_MIP_Tolerances_AbsMIPGap                0
Generic callback                                 0x50
Found incumbent of value 0.000000 after 0.00 sec. (0.07 ticks)
Tried aggregator 3 times.
MIP Presolve eliminated 817 rows and 330 columns.
MIP Presolve modified 7 coefficients.
Aggregator did 76 substitutions.
Reduced MIP has 14 rows, 24 columns, and 58 nonzeros.
Reduced MIP has 3 binaries, 12 generals, 0 SOSs, and 0 indicators.
Presolve time = 0.00 sec. (1.38 ticks)
Probing fixed 0 vars, tightened 4 bounds.
Probing time = 0.00 sec. (0.00 ticks)
Tried aggregator 3 times.
MIP Presolve eliminated 5 rows and 15 columns.
MIP Presolve added 1 rows and 1 columns.
MIP Presolve modified 12 coefficients.
Aggregator did 10 substitutions.
All rows and columns eliminated.
Presolve time = 0.02 sec. (0.05 ticks)

Root node processing (before b&c):
  Real time             =    0.02 sec. (1.53 ticks)
Sequential b&c:
  Real time             =    0.00 sec. (0.00 ticks)
                          ------------
Total (root+branch&cut) =    0.02 sec. (1.53 ticks)

--- MIP status (101): integer optimal solution.
--- Cplex Time: 0.02sec (det. 1.54 ticks)

--- Fixing integer variables and solving final LP...

Version identifier: 22.1.0.0 | 2022-03-09 | 1a383f8ce
CPXPARAM_Advance                                 2
CPXPARAM_Threads                                 1
CPXPARAM_MIP_Display                             4
CPXPARAM_MIP_Pool_Capacity                       0
CPXPARAM_MIP_Tolerances_AbsMIPGap                0
Tried aggregator 1 time.
LP Presolve eliminated 907 rows and 430 columns.
All rows and columns eliminated.
Presolve time = 0.00 sec. (0.35 ticks)

--- Fixed MIP status (1): optimal.
--- Cplex Time: 0.00sec (det. 0.64 ticks)


Proven optimal solution
MIP Solution:            1.000000    (0 iterations, 0 nodes)
Final Solve:             1.000000    (0 iterations)

Best possible:           1.000000
Absolute gap:            0.000000
Relative gap:            0.000000

--- Reading solution for model modelo1
*** Status: Normal completion
--- Job M-Fvf.gms Stop 01/22/23 14:26:59 elapsed 0:00:00.199
